\ Equation counts
\     Total        E        G        L        N        X        C        B
\	77	77	0	0
\
\ Variable counts
\                  x        b        i      s1s      s2s       sc       si
\     Total     cont   binary  integer     sos1     sos2    scont     sint
\	40	40

\ Nonzero counts
\     Total    const       NL      DLL
\
\
Minimize
 obj: [ + 8.5 x_1 * x_3 - 21.0 x_1 * x_6 + 22.5 x_1 * x_8 - 23.0 x_1 * x_10 - 11.5 x_1 * x_14 - 17.0 x_1 * x_15 - 22.5 x_1 * x_16 - 23.5 x_1 * x_19 + 23.5 x_1 * x_20 - 24.0 x_1 * x_22 + 4.0 x_1 * x_24 - 14.5 x_1 * x_25 - 12.5 x_1 * x_28 + 20.5 x_1 * x_29 + 0.5 x_1 * x_31 + 22.5 x_1 * x_38 - 21.0 x_1 * x_39 - 4.5 x_1 * x_40 + 10.0 x_2 * x_2 - 11.0 x_2 * x_3 + 2.0 x_2 * x_6 + 16.0 x_2 * x_12 - 19.5 x_2 * x_14 - 8.0 x_2 * x_15 - 15.0 x_2 * x_20 + 10.5 x_2 * x_21 - 2.5 x_2 * x_22 + 21.0 x_2 * x_25 + 3.5 x_2 * x_27 - 10.0 x_2 * x_28 - 23.0 x_2 * x_30 + 12.0 x_2 * x_35 - 10.0 x_2 * x_37 - 20.0 x_2 * x_39 - 8.0 x_2 * x_40 + 8.5 x_3 * x_1 - 11.0 x_3 * x_2 - 20.0 x_3 * x_7 + 15.5 x_3 * x_8 + 8.0 x_3 * x_9 + 16.5 x_3 * x_11 - 8.5 x_3 * x_16 - 18.0 x_3 * x_17 + 0.5 x_3 * x_18 + 4.5 x_3 * x_20 - 5.0 x_3 * x_21 - 2.0 x_3 * x_22 - 8.5 x_3 * x_28 + 3.0 x_3 * x_29 + 6.0 x_3 * x_37 - 18.0 x_4 * x_5 + 18.5 x_4 * x_7 - 24.0 x_4 * x_9 + 21.5 x_4 * x_11 - 3.0 x_4 * x_13 - 20.5 x_4 * x_15 - 21.0 x_4 * x_25 - 5.5 x_4 * x_27 + 22.5 x_4 * x_30 + 20.5 x_4 * x_31 - 5.0 x_4 * x_32 + 18.0 x_4 * x_36 + 21.5 x_4 * x_39 - 15.0 x_4 * x_40 - 18.0 x_5 * x_4 + 1.0 x_5 * x_6 - 6.5 x_5 * x_7 + 2.0 x_5 * x_8 + 8.0 x_5 * x_10 - 19.5 x_5 * x_15 - 5.5 x_5 * x_20 - 16.5 x_5 * x_21 + 23.0 x_5 * x_22 + 14.5 x_5 * x_23 + 24.0 x_5 * x_24 - 7.5 x_5 * x_25 - 9.5 x_5 * x_27 + 14.0 x_5 * x_28 + 13.0 x_5 * x_29 - 21.5 x_5 * x_30 + 5.5 x_5 * x_31 + 24.5 x_5 * x_32 + 13.5 x_5 * x_34 - 24.0 x_5 * x_35 - 14.5 x_5 * x_39 + 2.0 x_5 * x_40 - 21.0 x_6 * x_1 + 2.0 x_6 * x_2 + 1.0 x_6 * x_5 - 1.5 x_6 * x_7 - 17.0 x_6 * x_8 + 18.0 x_6 * x_12 + 10.0 x_6 * x_13 + 10.5 x_6 * x_14 + 17.5 x_6 * x_16 - 15.0 x_6 * x_18 + 3.5 x_6 * x_19 + 14.5 x_6 * x_20 + 12.0 x_6 * x_21 + 1.5 x_6 * x_23 + 22.0 x_6 * x_25 - 19.5 x_6 * x_27 + 19.0 x_6 * x_30 - 5.0 x_6 * x_32 - 18.5 x_6 * x_38 - 20.0 x_7 * x_3 + 18.5 x_7 * x_4 - 6.5 x_7 * x_5 - 1.5 x_7 * x_6 - 16.0 x_7 * x_8 + 4.5 x_7 * x_9 - 8.5 x_7 * x_10 + 15.5 x_7 * x_13 + 17.5 x_7 * x_14 + 11.0 x_7 * x_17 - 3.0 x_7 * x_21 - 9.0 x_7 * x_22 - 17.5 x_7 * x_25 - 23.0 x_7 * x_34 - 14.5 x_7 * x_39 + 22.5 x_8 * x_1 + 15.5 x_8 * x_3 + 2.0 x_8 * x_5 - 17.0 x_8 * x_6 - 16.0 x_8 * x_7 + 24.5 x_8 * x_8 + 1.0 x_8 * x_9 - 1.0 x_8 * x_10 - 14.0 x_8 * x_12 + 2.0 x_8 * x_13 - 10.5 x_8 * x_14 - 3.0 x_8 * x_15 + 1.0 x_8 * x_19 - 9.0 x_8 * x_25 + 9.5 x_8 * x_26 - 2.5 x_8 * x_30 + 22.5 x_8 * x_31 - 24.5 x_8 * x_32 + 20.5 x_8 * x_33 - 8.5 x_8 * x_34 + 16.5 x_8 * x_35 + 1.5 x_8 * x_38 + 8.0 x_9 * x_3 - 24.0 x_9 * x_4 + 4.5 x_9 * x_7 + 1.0 x_9 * x_8 + 15.0 x_9 * x_11 - 21.5 x_9 * x_15 + 17.5 x_9 * x_16 + 1.5 x_9 * x_17 + 22.5 x_9 * x_18 - 19.5 x_9 * x_19 - 22.5 x_9 * x_20 + 4.0 x_9 * x_22 - 10.0 x_9 * x_26 - 21.5 x_9 * x_27 - 9.0 x_9 * x_28 - 12.5 x_9 * x_40 - 23.0 x_10 * x_1 + 8.0 x_10 * x_5 - 8.5 x_10 * x_7 - 1.0 x_10 * x_8 - 1.0 x_10 * x_12 + 11.5 x_10 * x_13 - 22.0 x_10 * x_14 + 22.0 x_10 * x_15 - 3.5 x_10 * x_20 - 10.0 x_10 * x_22 - 21.0 x_10 * x_24 + 4.0 x_10 * x_25 - 21.5 x_10 * x_27 + 11.0 x_10 * x_29 - 22.0 x_10 * x_30 + 17.5 x_10 * x_31 - 14.5 x_10 * x_33 - 18.0 x_10 * x_35 - 13.5 x_10 * x_37 + 18.0 x_10 * x_38 + 17.0 x_10 * x_39 + 16.5 x_11 * x_3 + 21.5 x_11 * x_4 + 15.0 x_11 * x_9 - 10.5 x_11 * x_13 + 17.5 x_11 * x_15 - 7.5 x_11 * x_17 - 11.0 x_11 * x_18 + 2.5 x_11 * x_20 + 4.0 x_11 * x_23 - 15.5 x_11 * x_24 - 6.5 x_11 * x_29 + 7.0 x_11 * x_33 - 16.5 x_11 * x_34 - 10.5 x_11 * x_36 - 23.0 x_11 * x_39 + 8.5 x_11 * x_40 + 16.0 x_12 * x_2 + 18.0 x_12 * x_6 - 14.0 x_12 * x_8 - 1.0 x_12 * x_10 + 11.0 x_12 * x_16 - 14.0 x_12 * x_22 + 9.0 x_12 * x_25 - 17.0 x_12 * x_26 + 9.5 x_12 * x_27 + 10.0 x_12 * x_29 - 16.0 x_12 * x_33 - 14.5 x_12 * x_34 + 14.5 x_12 * x_37 + 22.0 x_12 * x_40 - 3.0 x_13 * x_4 + 10.0 x_13 * x_6 + 15.5 x_13 * x_7 + 2.0 x_13 * x_8 + 11.5 x_13 * x_10 - 10.5 x_13 * x_11 + 9.5 x_13 * x_14 + 17.5 x_13 * x_15 + 8.5 x_13 * x_20 - 7.0 x_13 * x_21 - 7.0 x_13 * x_30 - 1.5 x_13 * x_34 + 18.0 x_13 * x_35 - 17.0 x_13 * x_37 + 21.5 x_13 * x_38 + 21.0 x_13 * x_40 - 11.5 x_14 * x_1 - 19.5 x_14 * x_2 + 10.5 x_14 * x_6 + 17.5 x_14 * x_7 - 10.5 x_14 * x_8 - 22.0 x_14 * x_10 + 9.5 x_14 * x_13 - 22.5 x_14 * x_14 - 6.0 x_14 * x_15 + 8.0 x_14 * x_21 - 3.5 x_14 * x_27 + 13.0 x_14 * x_30 + 21.0 x_14 * x_32 - 17.0 x_15 * x_1 - 8.0 x_15 * x_2 - 20.5 x_15 * x_4 - 19.5 x_15 * x_5 - 3.0 x_15 * x_8 - 21.5 x_15 * x_9 + 22.0 x_15 * x_10 + 17.5 x_15 * x_11 + 17.5 x_15 * x_13 - 6.0 x_15 * x_14 - 24.5 x_15 * x_16 + 2.5 x_15 * x_17 + 6.5 x_15 * x_20 - 9.0 x_15 * x_22 + 22.5 x_15 * x_26 - 19.0 x_15 * x_27 + 17.5 x_15 * x_30 + 10.5 x_15 * x_32 - 5.5 x_15 * x_33 - 9.5 x_15 * x_34 + 22.0 x_15 * x_40 - 22.5 x_16 * x_1 - 8.5 x_16 * x_3 + 17.5 x_16 * x_6 + 17.5 x_16 * x_9 + 11.0 x_16 * x_12 - 24.5 x_16 * x_15 - 24.0 x_16 * x_16 - 4.5 x_16 * x_17 - 6.5 x_16 * x_18 + 14.0 x_16 * x_19 + 4.0 x_16 * x_21 + 19.5 x_16 * x_25 + 19.0 x_16 * x_26 - 20.0 x_16 * x_32 - 11.5 x_16 * x_33 + 19.0 x_16 * x_36 + 23.0 x_16 * x_39 - 18.0 x_17 * x_3 + 11.0 x_17 * x_7 + 1.5 x_17 * x_9 - 7.5 x_17 * x_11 + 2.5 x_17 * x_15 - 4.5 x_17 * x_16 + 8.5 x_17 * x_17 + 16.5 x_17 * x_21 - 4.5 x_17 * x_22 + 2.5 x_17 * x_23 - 5.0 x_17 * x_26 - 5.0 x_17 * x_29 + 14.5 x_17 * x_32 + 23.5 x_17 * x_33 + 9.0 x_17 * x_34 - 1.0 x_17 * x_35 + 7.0 x_17 * x_37 + 16.0 x_17 * x_40 + 0.5 x_18 * x_3 - 15.0 x_18 * x_6 + 22.5 x_18 * x_9 - 11.0 x_18 * x_11 - 6.5 x_18 * x_16 + 16.5 x_18 * x_18 + 24.5 x_18 * x_20 + 1.5 x_18 * x_23 - 5.5 x_18 * x_24 - 22.0 x_18 * x_28 + 3.0 x_18 * x_30 - 1.0 x_18 * x_32 + 16.5 x_18 * x_37 - 23.5 x_19 * x_1 + 3.5 x_19 * x_6 + 1.0 x_19 * x_8 - 19.5 x_19 * x_9 + 14.0 x_19 * x_16 + 12.0 x_19 * x_20 + 12.0 x_19 * x_23 - 24.0 x_19 * x_31 + 9.5 x_19 * x_33 + 17.5 x_19 * x_39 + 23.5 x_20 * x_1 - 15.0 x_20 * x_2 + 4.5 x_20 * x_3 - 5.5 x_20 * x_5 + 14.5 x_20 * x_6 - 22.5 x_20 * x_9 - 3.5 x_20 * x_10 + 2.5 x_20 * x_11 + 8.5 x_20 * x_13 + 6.5 x_20 * x_15 + 24.5 x_20 * x_18 + 12.0 x_20 * x_19 + 5.5 x_20 * x_20 + 16.5 x_20 * x_21 + 21.5 x_20 * x_24 + 13.0 x_20 * x_27 - 22.0 x_20 * x_30 + 10.5 x_21 * x_2 - 5.0 x_21 * x_3 - 16.5 x_21 * x_5 + 12.0 x_21 * x_6 - 3.0 x_21 * x_7 - 7.0 x_21 * x_13 + 8.0 x_21 * x_14 + 4.0 x_21 * x_16 + 16.5 x_21 * x_17 + 16.5 x_21 * x_20 - 12.0 x_21 * x_27 + 2.5 x_21 * x_32 + 11.0 x_21 * x_34 + 9.0 x_21 * x_35 - 9.5 x_21 * x_38 - 20.5 x_21 * x_39 - 24.0 x_22 * x_1 - 2.5 x_22 * x_2 - 2.0 x_22 * x_3 + 23.0 x_22 * x_5 - 9.0 x_22 * x_7 + 4.0 x_22 * x_9 - 10.0 x_22 * x_10 - 14.0 x_22 * x_12 - 9.0 x_22 * x_15 - 4.5 x_22 * x_17 + 11.5 x_22 * x_26 + 21.0 x_22 * x_31 - 23.5 x_22 * x_32 - 12.5 x_22 * x_33 + 14.5 x_22 * x_34 + 7.5 x_22 * x_36 + 19.0 x_22 * x_37 + 14.5 x_23 * x_5 + 1.5 x_23 * x_6 + 4.0 x_23 * x_11 + 2.5 x_23 * x_17 + 1.5 x_23 * x_18 + 12.0 x_23 * x_19 - 24.0 x_23 * x_26 + 9.0 x_23 * x_30 + 16.0 x_23 * x_31 + 20.0 x_23 * x_37 + 4.0 x_24 * x_1 + 24.0 x_24 * x_5 - 21.0 x_24 * x_10 - 15.5 x_24 * x_11 - 5.5 x_24 * x_18 + 21.5 x_24 * x_20 - 7.5 x_24 * x_28 + 4.0 x_24 * x_30 - 21.0 x_24 * x_32 + 20.0 x_24 * x_37 - 22.0 x_24 * x_40 - 14.5 x_25 * x_1 + 21.0 x_25 * x_2 - 21.0 x_25 * x_4 - 7.5 x_25 * x_5 + 22.0 x_25 * x_6 - 17.5 x_25 * x_7 - 9.0 x_25 * x_8 + 4.0 x_25 * x_10 + 9.0 x_25 * x_12 + 19.5 x_25 * x_16 + 20.0 x_25 * x_25 - 11.5 x_25 * x_28 - 9.5 x_25 * x_33 + 13.5 x_25 * x_34 + 6.0 x_25 * x_38 + 9.5 x_26 * x_8 - 10.0 x_26 * x_9 - 17.0 x_26 * x_12 + 22.5 x_26 * x_15 + 19.0 x_26 * x_16 - 5.0 x_26 * x_17 + 11.5 x_26 * x_22 - 24.0 x_26 * x_23 + 18.5 x_26 * x_36 - 9.0 x_26 * x_39 - 11.0 x_26 * x_40 + 3.5 x_27 * x_2 - 5.5 x_27 * x_4 - 9.5 x_27 * x_5 - 19.5 x_27 * x_6 - 21.5 x_27 * x_9 - 21.5 x_27 * x_10 + 9.5 x_27 * x_12 - 3.5 x_27 * x_14 - 19.0 x_27 * x_15 + 13.0 x_27 * x_20 - 12.0 x_27 * x_21 - 1.5 x_27 * x_28 + 20.5 x_27 * x_33 - 8.0 x_27 * x_37 - 12.5 x_28 * x_1 - 10.0 x_28 * x_2 - 8.5 x_28 * x_3 + 14.0 x_28 * x_5 - 9.0 x_28 * x_9 - 22.0 x_28 * x_18 - 7.5 x_28 * x_24 - 11.5 x_28 * x_25 - 1.5 x_28 * x_27 - 7.0 x_28 * x_28 - 17.5 x_28 * x_31 - 20.5 x_28 * x_32 + 11.0 x_28 * x_33 - 3.0 x_28 * x_36 + 20.5 x_29 * x_1 + 3.0 x_29 * x_3 + 13.0 x_29 * x_5 + 11.0 x_29 * x_10 - 6.5 x_29 * x_11 + 10.0 x_29 * x_12 - 5.0 x_29 * x_17 - 5.0 x_29 * x_29 + 20.5 x_29 * x_30 - 8.5 x_29 * x_31 + 17.0 x_29 * x_32 + 7.0 x_29 * x_38 - 22.0 x_29 * x_40 - 23.0 x_30 * x_2 + 22.5 x_30 * x_4 - 21.5 x_30 * x_5 + 19.0 x_30 * x_6 - 2.5 x_30 * x_8 - 22.0 x_30 * x_10 - 7.0 x_30 * x_13 + 13.0 x_30 * x_14 + 17.5 x_30 * x_15 + 3.0 x_30 * x_18 - 22.0 x_30 * x_20 + 9.0 x_30 * x_23 + 4.0 x_30 * x_24 + 20.5 x_30 * x_29 - 19.5 x_30 * x_30 - 24.5 x_30 * x_35 - 9.0 x_30 * x_37 - 21.5 x_30 * x_40 + 0.5 x_31 * x_1 + 20.5 x_31 * x_4 + 5.5 x_31 * x_5 + 22.5 x_31 * x_8 + 17.5 x_31 * x_10 - 24.0 x_31 * x_19 + 21.0 x_31 * x_22 + 16.0 x_31 * x_23 - 17.5 x_31 * x_28 - 8.5 x_31 * x_29 + 5.0 x_31 * x_31 + 15.5 x_31 * x_32 - 18.0 x_31 * x_33 - 22.0 x_31 * x_34 - 16.0 x_31 * x_38 - 21.5 x_31 * x_39 - 5.0 x_32 * x_4 + 24.5 x_32 * x_5 - 5.0 x_32 * x_6 - 24.5 x_32 * x_8 + 21.0 x_32 * x_14 + 10.5 x_32 * x_15 - 20.0 x_32 * x_16 + 14.5 x_32 * x_17 - 1.0 x_32 * x_18 + 2.5 x_32 * x_21 - 23.5 x_32 * x_22 - 21.0 x_32 * x_24 - 20.5 x_32 * x_28 + 17.0 x_32 * x_29 + 15.5 x_32 * x_31 + 3.5 x_32 * x_35 + 2.5 x_32 * x_36 + 1.5 x_32 * x_37 + 22.0 x_32 * x_39 + 6.5 x_32 * x_40 + 20.5 x_33 * x_8 - 14.5 x_33 * x_10 + 7.0 x_33 * x_11 - 16.0 x_33 * x_12 - 5.5 x_33 * x_15 - 11.5 x_33 * x_16 + 23.5 x_33 * x_17 + 9.5 x_33 * x_19 - 12.5 x_33 * x_22 - 9.5 x_33 * x_25 + 20.5 x_33 * x_27 + 11.0 x_33 * x_28 - 18.0 x_33 * x_31 - 19.5 x_33 * x_38 + 13.5 x_34 * x_5 - 23.0 x_34 * x_7 - 8.5 x_34 * x_8 - 16.5 x_34 * x_11 - 14.5 x_34 * x_12 - 1.5 x_34 * x_13 - 9.5 x_34 * x_15 + 9.0 x_34 * x_17 + 11.0 x_34 * x_21 + 14.5 x_34 * x_22 + 13.5 x_34 * x_25 - 22.0 x_34 * x_31 + 10.5 x_34 * x_35 + 9.0 x_34 * x_36 - 20.0 x_34 * x_37 - 0.5 x_34 * x_38 - 0.5 x_34 * x_39 - 7.0 x_34 * x_40 + 12.0 x_35 * x_2 - 24.0 x_35 * x_5 + 16.5 x_35 * x_8 - 18.0 x_35 * x_10 + 18.0 x_35 * x_13 - 1.0 x_35 * x_17 + 9.0 x_35 * x_21 - 24.5 x_35 * x_30 + 3.5 x_35 * x_32 + 10.5 x_35 * x_34 - 19.0 x_35 * x_39 + 18.0 x_36 * x_4 - 10.5 x_36 * x_11 + 19.0 x_36 * x_16 + 7.5 x_36 * x_22 + 18.5 x_36 * x_26 - 3.0 x_36 * x_28 + 2.5 x_36 * x_32 + 9.0 x_36 * x_34 + 16.0 x_36 * x_37 - 12.5 x_36 * x_39 - 10.0 x_37 * x_2 + 6.0 x_37 * x_3 - 13.5 x_37 * x_10 + 14.5 x_37 * x_12 - 17.0 x_37 * x_13 + 7.0 x_37 * x_17 + 16.5 x_37 * x_18 + 19.0 x_37 * x_22 + 20.0 x_37 * x_23 + 20.0 x_37 * x_24 - 8.0 x_37 * x_27 - 9.0 x_37 * x_30 + 1.5 x_37 * x_32 - 20.0 x_37 * x_34 + 16.0 x_37 * x_36 - 0.5 x_37 * x_39 - 10.0 x_37 * x_40 + 22.5 x_38 * x_1 - 18.5 x_38 * x_6 + 1.5 x_38 * x_8 + 18.0 x_38 * x_10 + 21.5 x_38 * x_13 - 9.5 x_38 * x_21 + 6.0 x_38 * x_25 + 7.0 x_38 * x_29 - 16.0 x_38 * x_31 - 19.5 x_38 * x_33 - 0.5 x_38 * x_34 - 14.0 x_38 * x_38 - 21.0 x_39 * x_1 - 20.0 x_39 * x_2 + 21.5 x_39 * x_4 - 14.5 x_39 * x_5 - 14.5 x_39 * x_7 + 17.0 x_39 * x_10 - 23.0 x_39 * x_11 + 23.0 x_39 * x_16 + 17.5 x_39 * x_19 - 20.5 x_39 * x_21 - 9.0 x_39 * x_26 - 21.5 x_39 * x_31 + 22.0 x_39 * x_32 - 0.5 x_39 * x_34 - 19.0 x_39 * x_35 - 12.5 x_39 * x_36 - 0.5 x_39 * x_37 - 6.5 x_39 * x_39 + 16.0 x_39 * x_40 - 4.5 x_40 * x_1 - 8.0 x_40 * x_2 - 15.0 x_40 * x_4 + 2.0 x_40 * x_5 - 12.5 x_40 * x_9 + 8.5 x_40 * x_11 + 22.0 x_40 * x_12 + 21.0 x_40 * x_13 + 22.0 x_40 * x_15 + 16.0 x_40 * x_17 - 22.0 x_40 * x_24 - 11.0 x_40 * x_26 - 22.0 x_40 * x_29 - 21.5 x_40 * x_30 + 6.5 x_40 * x_32 - 7.0 x_40 * x_34 - 10.0 x_40 * x_37 + 16.0 x_40 * x_39 ] + 0.0 x_1 + 12.0 x_2 + 0.0 x_3 + 0.0 x_4 + 42.0 x_5 + 0.0 x_6 + 0.0 x_7 + 0.0 x_8 + 0.0 x_9 + 0.0 x_10 + 0.0 x_11 - 34.0 x_12 - 39.0 x_13 + 0.0 x_14 + 0.0 x_15 + 0.0 x_16 + 0.0 x_17 + 0.0 x_18 - 7.0 x_19 - 4.0 x_20 + 0.0 x_21 + 0.0 x_22 + 15.0 x_23 + 31.0 x_24 + 0.0 x_25 + 0.0 x_26 + 0.0 x_27 + 0.0 x_28 + 0.0 x_29 + 36.0 x_30 - 3.0 x_31 - 11.0 x_32 + 0.0 x_33 + 0.0 x_34 + 34.0 x_35 + 0.0 x_36 + 0.0 x_37 + 0.0 x_38 + 0.0 x_39 + 0.0 x_40

Subject To
 e2: [  x_1 * x_20 ] = 0.0
 e3: [  x_1 * x_22 ] = 0.0
 e4: [  x_2 * x_35 ] = 0.0
 e5: [  x_3 * x_9 ] = 0.0
 e6: [  x_3 * x_18 ] = 0.0
 e7: [  x_5 * x_6 ] = 0.0
 e8: [  x_5 * x_35 ] = 0.0
 e9: [  x_6 * x_19 ] = 0.0
 e10: [  x_6 * x_32 ] = 0.0
 e11: [  x_7 * x_22 ] = 0.0
 e12: [  x_8 * x_1 ] = 0.0
 e13: [  x_8 * x_13 ] = 0.0
 e14: [  x_8 * x_15 ] = 0.0
 e15: [  x_8 * x_25 ] = 0.0
 e16: [  x_8 * x_31 ] = 0.0
 e17: [  x_8 * x_32 ] = 0.0
 e18: [  x_8 * x_33 ] = 0.0
 e19: [  x_9 * x_15 ] = 0.0
 e20: [  x_9 * x_28 ] = 0.0
 e21: [  x_10 * x_1 ] = 0.0
 e22: [  x_10 * x_7 ] = 0.0
 e23: [  x_11 * x_23 ] = 0.0
 e24: [  x_11 * x_33 ] = 0.0
 e25: [  x_11 * x_36 ] = 0.0
 e26: [  x_11 * x_39 ] = 0.0
 e27: [  x_12 * x_10 ] = 0.0
 e28: [  x_12 * x_26 ] = 0.0
 e29: [  x_12 * x_29 ] = 0.0
 e30: [  x_13 * x_15 ] = 0.0
 e31: [  x_14 * x_6 ] = 0.0
 e32: [  x_15 * x_8 ] = 0.0
 e33: [  x_16 * x_6 ] = 0.0
 e34: [  x_16 * x_19 ] = 0.0
 e35: [  x_16 * x_21 ] = 0.0
 e36: [  x_16 * x_26 ] = 0.0
 e37: [  x_17 * x_16 ] = 0.0
 e38: [  x_17 * x_32 ] = 0.0
 e39: [  x_18 * x_3 ] = 0.0
 e40: [  x_18 * x_11 ] = 0.0
 e41: [  x_18 * x_32 ] = 0.0
 e42: [  x_19 * x_16 ] = 0.0
 e43: [  x_20 * x_20 ] = 0.0
 e44: [  x_20 * x_30 ] = 0.0
 e45: [  x_21 * x_3 ] = 0.0
 e46: [  x_21 * x_7 ] = 0.0
 e47: [  x_22 * x_3 ] = 0.0
 e48: [  x_23 * x_31 ] = 0.0
 e49: [  x_24 * x_18 ] = 0.0
 e50: [  x_25 * x_6 ] = 0.0
 e51: [  x_25 * x_16 ] = 0.0
 e52: [  x_26 * x_9 ] = 0.0
 e53: [  x_26 * x_22 ] = 0.0
 e54: [  x_26 * x_23 ] = 0.0
 e55: [  x_27 * x_6 ] = 0.0
 e56: [  x_27 * x_20 ] = 0.0
 e57: [  x_28 * x_28 ] = 0.0
 e58: [  x_30 * x_14 ] = 0.0
 e59: [  x_30 * x_15 ] = 0.0
 e60: [  x_31 * x_1 ] = 0.0
 e61: [  x_31 * x_4 ] = 0.0
 e62: [  x_32 * x_6 ] = 0.0
 e63: [  x_32 * x_16 ] = 0.0
 e64: [  x_32 * x_21 ] = 0.0
 e65: [  x_32 * x_31 ] = 0.0
 e66: [  x_32 * x_35 ] = 0.0
 e67: [  x_32 * x_39 ] = 0.0
 e68: [  x_32 * x_40 ] = 0.0
 e69: [  x_33 * x_10 ] = 0.0
 e70: [  x_34 * x_8 ] = 0.0
 e71: [  x_34 * x_15 ] = 0.0
 e72: [  x_34 * x_17 ] = 0.0
 e73: [  x_34 * x_31 ] = 0.0
 e74: [  x_34 * x_36 ] = 0.0
 e75: [  x_37 * x_2 ] = 0.0
 e76: [  x_37 * x_27 ] = 0.0
 e77: [  x_39 * x_11 ] = 0.0
 e78: [  x_40 * x_12 ] = 0.0

Bounds
 x_1 <= 1.0
 x_2 <= 1.0
 x_3 <= 1.0
 x_4 <= 1.0
 x_5 <= 1.0
 x_6 <= 1.0
 x_7 <= 1.0
 x_8 <= 1.0
 x_9 <= 1.0
 x_10 <= 1.0
 x_11 <= 1.0
 x_12 <= 1.0
 x_13 <= 1.0
 x_14 <= 1.0
 x_15 <= 1.0
 x_16 <= 1.0
 x_17 <= 1.0
 x_18 <= 1.0
 x_19 <= 1.0
 x_20 <= 1.0
 x_21 <= 1.0
 x_22 <= 1.0
 x_23 <= 1.0
 x_24 <= 1.0
 x_25 <= 1.0
 x_26 <= 1.0
 x_27 <= 1.0
 x_28 <= 1.0
 x_29 <= 1.0
 x_30 <= 1.0
 x_31 <= 1.0
 x_32 <= 1.0
 x_33 <= 1.0
 x_34 <= 1.0
 x_35 <= 1.0
 x_36 <= 1.0
 x_37 <= 1.0
 x_38 <= 1.0
 x_39 <= 1.0
 x_40 <= 1.0

End